10
4
 72  73
 51  36
 22  65
 49  48
 91  58
 21  15
 50  71
 64  45
 19  99
 30  19
 31   8
 52  13
 19  38
 43  46
 75  48
 35  20
 49  15
 48  55
 16  26
 23  30
 43  95
 37  19
  8   7
 56  26
 63   5
